18
0 1 3
0 2 43
0 3 76
0 4 54
0 5 9
0 6 62
0 7 60
0 8 16
0 9 91
0 10 21
0 11 36
0 12 96
0 13 11
0 14 94
0 15 70
0 16 75
0 17 64
1 0 40
1 2 92
1 3 34
1 4 59
1 5 22
1 6 84
1 7 13
1 8 43
1 9 66
1 10 34
1 11 18
1 12 47
1 13 47
1 14 47
1 15 97
1 16 73
1 17 84
2 0 43
2 1 11
2 3 58
2 4 79
2 5 38
2 6 2
2 7 40
2 8 52
2 9 16
2 10 22
2 11 83
2 12 8
2 13 26
2 14 94
2 15 67
2 16 97
2 17 71
3 0 72
3 1 8
3 2 13
3 4 38
3 5 83
3 6 5
3 7 54
3 8 52
3 9 6
3 10 96
3 11 30
3 12 86
3 13 85
3 14 7
3 15 31
3 16 10
3 17 25
4 0 65
4 1 28
4 2 10
4 3 45
4 5 95
4 6 26
4 7 76
4 8 77
4 9 38
4 10 45
4 11 81
4 12 74
4 13 12
4 14 63
4 15 27
4 16 73
4 17 85
5 0 52
5 1 20
5 2 47
5 3 52
5 4 88
5 6 26
5 7 40
5 8 70
5 9 51
5 10 74
5 11 26
5 12 97
5 13 79
5 14 61
5 15 16
5 16 52
5 17 20
6 0 12
6 1 15
6 2 26
6 3 16
6 4 73
6 5 79
6 7 7
6 8 89
6 9 77
6 10 66
6 11 15
6 12 64
6 13 57
6 14 23
6 15 15
6 16 59
6 17 50
7 0 18
7 1 25
7 2 23
7 3 69
7 4 52
7 5 48
7 6 46
7 8 87
7 9 62
7 10 83
7 11 85
7 12 6
7 13 35
7 14 34
7 15 78
7 16 50
7 17 65
8 0 45
8 1 55
8 2 79
8 3 74
8 4 19
8 5 26
8 6 26
8 7 10
8 9 37
8 10 85
8 11 79
8 12 40
8 13 11
8 14 58
8 15 23
8 16 89
8 17 10
9 0 71
9 1 19
9 2 9
9 3 9
9 4 55
9 5 73
9 6 24
9 7 52
9 8 64
9 10 70
9 11 69
9 12 26
9 13 36
9 14 5
9 15 33
9 16 12
9 17 36
10 0 92
10 1 48
10 2 2
10 3 51
10 4 11
10 5 26
10 6 90
10 7 71
10 8 32
10 9 78
10 11 83
10 12 89
10 13 3
10 14 41
10 15 42
10 16 5
10 17 33
11 0 10
11 1 25
11 2 30
11 3 53
11 4 26
11 5 37
11 6 90
11 7 10
11 8 41
11 9 40
11 10 34
11 12 26
11 13 42
11 14 35
11 15 12
11 16 33
11 17 15
12 0 75
12 1 72
12 2 90
12 3 19
12 4 32
12 5 27
12 6 81
12 7 29
12 8 46
12 9 97
12 10 27
12 11 40
12 13 3
12 14 55
12 15 91
12 16 87
12 17 68
13 0 32
13 1 20
13 2 65
13 3 18
13 4 97
13 5 94
13 6 5
13 7 83
13 8 21
13 9 37
13 10 98
13 11 70
13 12 91
13 14 42
13 15 28
13 16 63
13 17 6
14 0 91
14 1 80
14 2 66
14 3 16
14 4 8
14 5 10
14 6 4
14 7 37
14 8 4
14 9 33
14 10 19
14 11 15
14 12 96
14 13 13
14 15 9
14 16 32
14 17 37
15 0 25
15 1 23
15 2 78
15 3 22
15 4 51
15 5 62
15 6 59
15 7 30
15 8 93
15 9 18
15 10 47
15 11 80
15 12 73
15 13 79
15 14 74
15 16 15
15 17 87
16 0 41
16 1 58
16 2 19
16 3 83
16 4 59
16 5 74
16 6 13
16 7 55
16 8 66
16 9 32
16 10 72
16 11 88
16 12 11
16 13 9
16 14 41
16 15 73
16 17 25
17 0 86
17 1 6
17 2 4
17 3 76
17 4 20
17 5 75
17 6 4
17 7 26
17 8 9
17 9 36
17 10 71
17 11 38
17 12 13
17 13 31
17 14 94
17 15 56
17 16 41
